c This is a random SAT instance with 10 variables and 20 clauses
p cnf 10 20
1 -1 -5 10 7 9 -2 0
-4 1 -9 2 10 3 0
5 8 7 0
2 0
-5 -8 1 3 -4 -2 4 0
10 4 1 -4 0
-9 8 2 -8 0
-1 0
3 8 1 0
8 0
8 0
-6 -1 8 5 9 -8 0
5 -2 -1 -6 4 -8 2 0
-6 -8 1 9 -2 0
-9 -3 -7 2 -5 8 5 0
-8 0
8 -1 -9 0
10 7 -3 -8 -4 2 0
-7 8 9 6 1 4 0
-7 6 -10 8 0